Debug: configOverride contents: IsWeighted_ObjFunc add_break_callback add_generate_reports add_threshold_distance_rssv bw_multiplier capacities cover_mode coverages cust_max_id distance_matrix loc_max_id max_ite_subprob_rssv method method_post_opt method_rssv_fp method_rssv_sp output p seed service size_subproblems_rssv subarea threads time time_cplex time_subprob_rssv weights 
Loading instance...
Scanning input data...
Distance matrix dimensions: 3039 x 3039 = 9235521
Elapsed time: 0 ms

Loading weights...
Skipped line: customer weight coord_x coord_y
Loaded 3038 weights
Loaded 3038 coordinates
Total customer demand: 152913.00
Elapsed time: 7 ms

Loading capacities...
Skipped line: location capacity coord_x coord_y
Loaded 3038 capacities
Loaded 3038 coordinates
Elapsed time: 6 ms

Loading distance matrix...
Computing euclidian distances...
bw multiplier: 0.50
Loaded 9232482 distances
dists stdev: 862.93
bandwidth h: 18.49
locations: 3038
customers: 3038
p: 700
Elapsed time: 270 ms

[INFO] Instance loaded
loc_max_id: 3038
loc_cnt: 3038
service: p3038_700
cust_max_id: 3038
cust_cnt: 3038
unweighted obj function
p: 700
total_demand: 152913.00


Default row names c1, c2 ... being created.
-------------------------------------------------
-------------------------------------------------
    EXACT_CPMP_BIN
-------------------------------------------------
Version identifier: 22.1.1.0 | 2022-11-28 | 9160aff4d
CPXPARAM_TimeLimit                               3600
Tried aggregator 1 time.
Presolve has eliminated 0 rows and 0 columns...
Reduced MIP has 6077 rows, 9232482 columns, and 18464964 nonzeros.
Reduced MIP has 9232482 binaries, 0 generals, 0 SOSs, and 0 indicators.
Presolve time = 77.68 sec. (16445.21 ticks)
Tried aggregator 1 time.
Presolve has eliminated 0 rows and 0 columns...
Detecting symmetries...
Reduced MIP has 6077 rows, 9232482 columns, and 18464964 nonzeros.
Reduced MIP has 9232482 binaries, 0 generals, 0 SOSs, and 0 indicators.
Presolve time = 98.26 sec. (18569.94 ticks)
Probing time = 40.21 sec. (2185.65 ticks)
Clique table members: 9232482.
MIP emphasis: balance optimality and feasibility.
MIP search method: dynamic search.
Parallel mode: deterministic, using up to 32 threads.
Root relaxation solution time = 197.41 sec. (16207.62 ticks)

        Nodes                                         Cuts/
   Node  Left     Objective  IInf  Best Integer    Best Bound    ItCnt     Gap

*     0+    0                      3542329.6759        0.0000           100.00%
*     0+    0                      3366924.4095        0.0000           100.00%
*     0+    0                      3227829.2264        0.0000           100.00%
*     0+    0                      3105799.4215        0.0000           100.00%
*     0+    0                      2986289.4722        0.0000           100.00%
*     0+    0                      2845496.1020        0.0000           100.00%
      0     0       -0.0000  2865  2845496.1020        0.0000     2912  100.00%
*     0+    0                      2807472.2400        0.0000           100.00%
*     0+    0                      2794797.1255        0.0000           100.00%
      0     0    46305.8025  3694  2794797.1255    Cuts: 1619     6005   98.34%
      0     0    73807.9869  4794  2794797.1255    Cuts: 1619     8735   97.36%
      0     0    87606.3021  5930  2794797.1255    Cuts: 1619    11542   96.87%
      0     0    92426.3999  6361  2794797.1255    Cuts: 1619    14063   96.69%
*     0+    0                       341587.2006    92426.3999            72.94%
*     0+    0                       341574.3685    92426.3999            72.94%
      0     0    95018.3532  6069   341574.3685    Cuts: 1619    16273   72.18%
Detecting symmetries...
      0     0   101976.0723  7120   341574.3685    Cuts: 1619    18740   70.15%
*     0+    0                       287546.2091   101976.0723            64.54%
      0     0   104370.8989  7033   287546.2091    Cuts: 1619    21077   63.70%
*     0+    0                       271571.1546   104370.8989            61.57%
      0     0   105970.4575  6648   271571.1546    Cuts: 1619    23522   60.98%
*     0+    0                       254422.6525   105970.4575            58.35%
      0     0   107111.3194  6271   254422.6525    Cuts: 1619    26022   57.90%
*     0+    0                       138556.6615   107111.3194            22.69%
      0     0  -1.00000e+75     0   138556.6615   107111.3194    26022   22.69%

Clique cuts applied:  4093
Cover cuts applied:  6891
Flow cuts applied:  111
Mixed integer rounding cuts applied:  472
Zero-half cuts applied:  1889

Root node processing (before b&c):
  Real time             = 3613.47 sec. (1220470.60 ticks)
Parallel b&c, 32 threads:
  Real time             =    0.00 sec. (0.00 ticks)
  Sync time (average)   =    0.00 sec.
  Wait time (average)   =    0.00 sec.
                          ------------
Total (root+branch&cut) = 3613.47 sec. (1220470.60 ticks)
[INFO] Saving variables cplex:
./outputs/solutions/2024-08-27_LIT_seed_24/VarsValues_cplex/test_lit_p3038_700_CPMP_Vars_Bin_p_700_EXACT_CPMP_BIN.txt
[INFO] Saving results cplex: 
./outputs/solutions/2024-08-27_LIT_seed_24/Results_cplex/test_lit_p3038_700_Bin_EXACT_CPMP_BIN.csv

Final solution CPMP:
p locations: 3033 3025 3008 2994 2977 2971 2951 2943 2929 2916 2915 2911 2899 2896 2890 2867 2841 2838 2825 2822 2805 2801 2795 2790 2780 2770 2765 2759 2756 2733 2727 2724 2710 2690 2673 2671 2668 2663 2660 2642 2621 2616 2614 2610 2608 2600 2598 2586 2579 2576 2573 2568 2563 2558 2545 2528 2525 2521 2514 2503 2492 2489 2484 2480 2462 2459 2443 2434 2430 2426 2414 2412 2391 2375 2370 2367 2360 2357 2352 2340 2336 2325 2318 2308 3012 2303 2992 2283 2281 2984 2275 2273 2266 2251 2228 2932 2223 2221 2211 2199 2193 2188 2178 2144 2127 2119 2108 2811 2102 2098 2798 2089 2084 2073 2070 2067 2063 2062 2045 2746 2037 2739 2030 2014 2720 2011 2002 1996 1992 2697 1988 1977 1974 1970 1966 1963 1960 1949 1945 1941 1939 2633 1924 1922 1918 2624 1915 1911 1897 1894 1882 1873 1869 1866 1857 1845 1841 1832 1824 1821 1814 1795 1792 1787 1781 1774 1761 1752 1743 1736 1728 2432 1723 1713 1704 2383 1674 1659 1656 1649 1641 1635 1626 1619 2321 1612 2312 1603 3015 1597 1595 3010 1592 3007 2298 1589 1586 1571 1568 1565 2269 1560 1556 2260 1551 1547 1544 2954 1536 2241 1532 2233 1524 2226 1517 2927 2218 1509 2917 1499 1494 1468 2169 1460 2166 1457 1448 1445 2852 1434 1427 2833 706 2117 699 25 1036 654 311 1322 2773 646 640 635 2048 630 1304 2749 2040 622 959 618 2742 2033 615 607 2331 1622 913 564 901 2688 561 517 1900 1191 2808 681 2134 7 514 2095 677 340 1351 510 1184 2628 501 2955 828 1159 484 143 2572 1154 811 637 2427 1718 300 470 462 2247 120 453 116 774 2560 433 429 766 592 1638 929 2180 1471 762 2714 1296 587 420 1094 1826 408 2500 1082 393 1439 730 392 1403 384 1395 1800 382 45 719 1784 366 29 361 692 355 1738 1029 358 352 2444 1026 349 2848 2139 12 1360 64 466 131 553 2343 216 386 2885 49 1060 52 1772 1063 1789 371 34 2091 1382 1455 37 696 22 661 1370 904 195 869 274 611 576 1285 149 486 2531 404 2903 67 2868 741 70 2871 2162 744 112 1862 444 1118 2946 110 1121 2562 1144 435 1818 1109 2395 1686 268 2388 261 1644 935 97 771 127 206 1217 799 90 169 1707 289 2958 122 2407 280 954 2105 687 1903 485 1194 2146 19 2785 2076 658 1367 187 375 2877 41 2842 1424 715 2507 380 1391 2882 46 383 526 1909 491 1200 675 338 2131 4 499 165 786 77 1088 244 2450 323 997 78 2879 752 236 315 1326 1953 535 2940 104 1689 271 2174 756 152 319 993 495 1878 1169 293 1002 2695 568 2431 304 159 1581 872 163 837 2592 1174 1054 345 480 1189 685 190 1934 1225 520 1229 130 1850 1141 297 1680 971 2348 221 399 1073 1243 247 1258 585 2378 1669 251 1503 85 252 1263 331 507 265 1985 567 1276 2752 2043 625 2717 2008 1299 291 337 2766 1348 722 727 1442 733 2155 737 2876 749 2183 1474 765 1486 777 780 783 82 791 795 797 425 1134 2941 814 1151 2945 2236 1527 818 830 1543 834 2968 132 841 849 1186 2987 860 1575 866 2294 876 1591 882 2305 1596 178 887 184 893 897 1234 908 916 1628 210 919 1632 214 923 218 927 931 232 941 946 964 966 976 981 2736 1318 2402 984 987 1699 990 1710 1001 1007 1010 1017 1730 1021 1740 1031 1746 328 1037 1042 2468 1759 341 1050 1069 1076 2122 1413 2497 1079 1806 1097 1104 1106 1119 416 1125 2555 1137 1848 1139 437 1146 457 1166 1172 474 1183 1205 503 1212 2640 1931 513 1222 2655 528 1237 540 1249 1252 1269 1980 1271 2706 1288 598 1307 1312 1325 1329 1333 1337 1340 1345 648 1357 1376 669 1378 1398 1402 1409 2835 1417 712 1421 
p size: 700
objective: 138556.661474793683738
sum (dij * xij) 
demand/capacity: 152913.000000000000000/191100
Solution is Feasible
Statistics:
Max distance: 2120.286773056890070
Min distance: 0.000000000000000
Avg distance: 45.607854336666783
Std deviation distance: 73.658192242443604


Final total elapsed time: 3685s
[INFO] Saving assignment: ./outputs/solutions/2024-08-27_LIT_seed_24/Assignments/test_lit_p3038_700_p_700_EXACT_CPMP_BIN.txt
[INFO] Saving results: ./outputs/solutions/2024-08-27_LIT_seed_24/test_lit_p3038_700_results_EXACT_CPMP_BIN.csv
[INFO] Saving all results: ./outputs/solutions/test_all_results.csv
Post Optimization: null


-------------------------------------------------
Post Optimization
-------------------------------------------------
method: null
-------------------------------------------------
Time for post-optimization: -85.000000000000000s
PostOptimization constructor
p locations: 3033 3025 3008 2994 2977 2971 2951 2943 2929 2916 2915 2911 2899 2896 2890 2867 2841 2838 2825 2822 2805 2801 2795 2790 2780 2770 2765 2759 2756 2733 2727 2724 2710 2690 2673 2671 2668 2663 2660 2642 2621 2616 2614 2610 2608 2600 2598 2586 2579 2576 2573 2568 2563 2558 2545 2528 2525 2521 2514 2503 2492 2489 2484 2480 2462 2459 2443 2434 2430 2426 2414 2412 2391 2375 2370 2367 2360 2357 2352 2340 2336 2325 2318 2308 3012 2303 2992 2283 2281 2984 2275 2273 2266 2251 2228 2932 2223 2221 2211 2199 2193 2188 2178 2144 2127 2119 2108 2811 2102 2098 2798 2089 2084 2073 2070 2067 2063 2062 2045 2746 2037 2739 2030 2014 2720 2011 2002 1996 1992 2697 1988 1977 1974 1970 1966 1963 1960 1949 1945 1941 1939 2633 1924 1922 1918 2624 1915 1911 1897 1894 1882 1873 1869 1866 1857 1845 1841 1832 1824 1821 1814 1795 1792 1787 1781 1774 1761 1752 1743 1736 1728 2432 1723 1713 1704 2383 1674 1659 1656 1649 1641 1635 1626 1619 2321 1612 2312 1603 3015 1597 1595 3010 1592 3007 2298 1589 1586 1571 1568 1565 2269 1560 1556 2260 1551 1547 1544 2954 1536 2241 1532 2233 1524 2226 1517 2927 2218 1509 2917 1499 1494 1468 2169 1460 2166 1457 1448 1445 2852 1434 1427 2833 706 2117 699 25 1036 654 311 1322 2773 646 640 635 2048 630 1304 2749 2040 622 959 618 2742 2033 615 607 2331 1622 913 564 901 2688 561 517 1900 1191 2808 681 2134 7 514 2095 677 340 1351 510 1184 2628 501 2955 828 1159 484 143 2572 1154 811 637 2427 1718 300 470 462 2247 120 453 116 774 2560 433 429 766 592 1638 929 2180 1471 762 2714 1296 587 420 1094 1826 408 2500 1082 393 1439 730 392 1403 384 1395 1800 382 45 719 1784 366 29 361 692 355 1738 1029 358 352 2444 1026 349 2848 2139 12 1360 64 466 131 553 2343 216 386 2885 49 1060 52 1772 1063 1789 371 34 2091 1382 1455 37 696 22 661 1370 904 195 869 274 611 576 1285 149 486 2531 404 2903 67 2868 741 70 2871 2162 744 112 1862 444 1118 2946 110 1121 2562 1144 435 1818 1109 2395 1686 268 2388 261 1644 935 97 771 127 206 1217 799 90 169 1707 289 2958 122 2407 280 954 2105 687 1903 485 1194 2146 19 2785 2076 658 1367 187 375 2877 41 2842 1424 715 2507 380 1391 2882 46 383 526 1909 491 1200 675 338 2131 4 499 165 786 77 1088 244 2450 323 997 78 2879 752 236 315 1326 1953 535 2940 104 1689 271 2174 756 152 319 993 495 1878 1169 293 1002 2695 568 2431 304 159 1581 872 163 837 2592 1174 1054 345 480 1189 685 190 1934 1225 520 1229 130 1850 1141 297 1680 971 2348 221 399 1073 1243 247 1258 585 2378 1669 251 1503 85 252 1263 331 507 265 1985 567 1276 2752 2043 625 2717 2008 1299 291 337 2766 1348 722 727 1442 733 2155 737 2876 749 2183 1474 765 1486 777 780 783 82 791 795 797 425 1134 2941 814 1151 2945 2236 1527 818 830 1543 834 2968 132 841 849 1186 2987 860 1575 866 2294 876 1591 882 2305 1596 178 887 184 893 897 1234 908 916 1628 210 919 1632 214 923 218 927 931 232 941 946 964 966 976 981 2736 1318 2402 984 987 1699 990 1710 1001 1007 1010 1017 1730 1021 1740 1031 1746 328 1037 1042 2468 1759 341 1050 1069 1076 2122 1413 2497 1079 1806 1097 1104 1106 1119 416 1125 2555 1137 1848 1139 437 1146 457 1166 1172 474 1183 1205 503 1212 2640 1931 513 1222 2655 528 1237 540 1249 1252 1269 1980 1271 2706 1288 598 1307 1312 1325 1329 1333 1337 1340 1345 648 1357 1376 669 1378 1398 1402 1409 2835 1417 712 1421 
p size: 700
objective: 138556.661474793683738
sum (dij * xij) 
demand/capacity: 152913.000000000000000/191100
Solution is Feasible
[INFO] Running post-optimization
Time limit: -85.000000000000000
Max size of the neigh: 3



Finishing post-optimization
p locations: 3033 3025 3008 2994 2977 2971 2951 2943 2929 2916 2915 2911 2899 2896 2890 2867 2841 2838 2825 2822 2805 2801 2795 2790 2780 2770 2765 2759 2756 2733 2727 2724 2710 2690 2673 2671 2668 2663 2660 2642 2621 2616 2614 2610 2608 2600 2598 2586 2579 2576 2573 2568 2563 2558 2545 2528 2525 2521 2514 2503 2492 2489 2484 2480 2462 2459 2443 2434 2430 2426 2414 2412 2391 2375 2370 2367 2360 2357 2352 2340 2336 2325 2318 2308 3012 2303 2992 2283 2281 2984 2275 2273 2266 2251 2228 2932 2223 2221 2211 2199 2193 2188 2178 2144 2127 2119 2108 2811 2102 2098 2798 2089 2084 2073 2070 2067 2063 2062 2045 2746 2037 2739 2030 2014 2720 2011 2002 1996 1992 2697 1988 1977 1974 1970 1966 1963 1960 1949 1945 1941 1939 2633 1924 1922 1918 2624 1915 1911 1897 1894 1882 1873 1869 1866 1857 1845 1841 1832 1824 1821 1814 1795 1792 1787 1781 1774 1761 1752 1743 1736 1728 2432 1723 1713 1704 2383 1674 1659 1656 1649 1641 1635 1626 1619 2321 1612 2312 1603 3015 1597 1595 3010 1592 3007 2298 1589 1586 1571 1568 1565 2269 1560 1556 2260 1551 1547 1544 2954 1536 2241 1532 2233 1524 2226 1517 2927 2218 1509 2917 1499 1494 1468 2169 1460 2166 1457 1448 1445 2852 1434 1427 2833 706 2117 699 25 1036 654 311 1322 2773 646 640 635 2048 630 1304 2749 2040 622 959 618 2742 2033 615 607 2331 1622 913 564 901 2688 561 517 1900 1191 2808 681 2134 7 514 2095 677 340 1351 510 1184 2628 501 2955 828 1159 484 143 2572 1154 811 637 2427 1718 300 470 462 2247 120 453 116 774 2560 433 429 766 592 1638 929 2180 1471 762 2714 1296 587 420 1094 1826 408 2500 1082 393 1439 730 392 1403 384 1395 1800 382 45 719 1784 366 29 361 692 355 1738 1029 358 352 2444 1026 349 2848 2139 12 1360 64 466 131 553 2343 216 386 2885 49 1060 52 1772 1063 1789 371 34 2091 1382 1455 37 696 22 661 1370 904 195 869 274 611 576 1285 149 486 2531 404 2903 67 2868 741 70 2871 2162 744 112 1862 444 1118 2946 110 1121 2562 1144 435 1818 1109 2395 1686 268 2388 261 1644 935 97 771 127 206 1217 799 90 169 1707 289 2958 122 2407 280 954 2105 687 1903 485 1194 2146 19 2785 2076 658 1367 187 375 2877 41 2842 1424 715 2507 380 1391 2882 46 383 526 1909 491 1200 675 338 2131 4 499 165 786 77 1088 244 2450 323 997 78 2879 752 236 315 1326 1953 535 2940 104 1689 271 2174 756 152 319 993 495 1878 1169 293 1002 2695 568 2431 304 159 1581 872 163 837 2592 1174 1054 345 480 1189 685 190 1934 1225 520 1229 130 1850 1141 297 1680 971 2348 221 399 1073 1243 247 1258 585 2378 1669 251 1503 85 252 1263 331 507 265 1985 567 1276 2752 2043 625 2717 2008 1299 291 337 2766 1348 722 727 1442 733 2155 737 2876 749 2183 1474 765 1486 777 780 783 82 791 795 797 425 1134 2941 814 1151 2945 2236 1527 818 830 1543 834 2968 132 841 849 1186 2987 860 1575 866 2294 876 1591 882 2305 1596 178 887 184 893 897 1234 908 916 1628 210 919 1632 214 923 218 927 931 232 941 946 964 966 976 981 2736 1318 2402 984 987 1699 990 1710 1001 1007 1010 1017 1730 1021 1740 1031 1746 328 1037 1042 2468 1759 341 1050 1069 1076 2122 1413 2497 1079 1806 1097 1104 1106 1119 416 1125 2555 1137 1848 1139 437 1146 457 1166 1172 474 1183 1205 503 1212 2640 1931 513 1222 2655 528 1237 540 1249 1252 1269 1980 1271 2706 1288 598 1307 1312 1325 1329 1333 1337 1340 1345 648 1357 1376 669 1378 1398 1402 1409 2835 1417 712 1421 
p size: 700
objective: 138556.661474793683738
sum (dij * xij) 
demand/capacity: 152913.000000000000000/191100
Solution is Feasible
Solution Stats
Statistics:
Max distance: 2120.286773056890070
Min distance: 0.000000000000000
Avg distance: 45.607854336666783
Std deviation distance: 73.658192242443604


[INFO] Saving assignment: ./outputs/solutions/2024-08-27_LIT_seed_24/Assignments/test_lit_p3038_700_p_700_EXACT_CPMP_BIN_POSTOPT.txt
[INFO] Saving results: ./outputs/solutions/2024-08-27_LIT_seed_24/test_lit_p3038_700_results_EXACT_CPMP_BIN_POSTOPT.csv
[INFO] Saving all results: ./outputs/solutions/test_all_results.csv
Final total elapsed time (post opt): 3685s
Elapsed time: 3685272 ms

